db/inputs/3176126574786428851141021898539424314.smt2
(set-logic QF_FP)
(declare-const x0 (_ FloatingPoint 8 24))
(declare-const x1 (_ FloatingPoint 8 24))
(declare-const x2 (_ FloatingPoint 8 24))
(declare-const x3 (_ FloatingPoint 8 24))
(declare-const x4 (_ FloatingPoint 8 24))
(declare-const x5 (_ FloatingPoint 8 24))
(declare-const x6 (_ FloatingPoint 8 24))
(declare-const x7 (_ FloatingPoint 8 24))
(declare-const x8 (_ FloatingPoint 8 24))
(declare-const x9 (_ FloatingPoint 8 24))
(declare-const x10 (_ FloatingPoint 8 24))
(declare-const x11 (_ FloatingPoint 8 24))
(declare-const x12 (_ FloatingPoint 8 24))
(declare-const x13 (_ FloatingPoint 8 24))
(declare-const x14 (_ FloatingPoint 8 24))
(declare-const x15 (_ FloatingPoint 8 24))
(declare-const x16 (_ FloatingPoint 8 24))
(declare-const x17 (_ FloatingPoint 8 24))
(declare-const x18 (_ FloatingPoint 8 24))
(assert (fp.eq (fp.div RNE x18 x14) (fp.add RNE x1 x5)))
(assert (fp.eq (fp.sub RNE x12 x5) (fp.sub RNE x8 x3)))
(assert (fp.geq (fp.neg x0) (fp.neg x15)))
(assert (fp.lt (fp.add RNE x5 x13) (fp.mul RNE x0 x15)))
(assert (fp.lt (fp.add RNE x6 x17) (fp.add RNE x3 x17)))
(assert (fp.geq (fp.mul RNE x16 x11) (fp.add RNE x6 x5)))
(assert (fp.gt (fp.sub RNE x12 x0) (fp.mul RNE x13 x16)))
(assert (fp.geq (fp.sub RNE x16 x10) (fp.mul RNE x12 x14)))
(assert (fp.geq (fp.neg x2) (fp.div RNE x6 x0)))
(assert (fp.leq (fp.add RNE x12 x4) (fp.mul RNE x15 x7)))
(assert (fp.leq (fp.neg x4) (fp.mul RNE x8 x15)))
(assert (fp.gt (fp.sub RNE x16 x17) (fp.mul RNE x10 x6)))
(assert (fp.geq (fp.add RNE x17 x0) (fp.add RNE x9 x8)))
(assert (fp.leq (fp.add RNE x17 x2) (fp.add RNE x1 x1)))
(assert (fp.leq (fp.sub RNE x7 x18) (fp.add RNE x3 x4)))
(assert (fp.gt (fp.neg x15) (fp.mul RNE x12 x12)))
(check-sat)
