db/data/3176126574786428851141021898539424314.z3.out
sat
-------------------
32.591006524
